SDVRP instances/custom_instances/p10_26_split0.vrp
NAME:p10_26_split
BEST_KNOWN: 0
COMMENT: 0
DIMENSION: 894
CAPACITY: 200
EDGE_WEIGHT_FORMAT: FUNCTION
EDGE_WEIGHT_TYPE: EXACT_2D
NODE_COORD_SECTION
1 0.00000 0.00000
2 34 -14
3 34 -14
4 34 -14
5 34 -14
6 34 -14
7 50 24
8 50 24
9 50 24
10 50 24
11 50 24
12 50 24
13 50 24
14 -1 29
15 -1 29
16 -1 29
17 -1 29
18 -1 29
19 -1 29
20 12 -7
21 12 -7
22 12 -7
23 12 -7
24 12 -7
25 12 -7
26 12 -7
27 -17 14
28 -17 14
29 -17 14
30 -17 14
31 12 -17
32 12 -17
33 12 -17
34 12 -17
35 -14 19
36 -14 19
37 -14 19
38 -14 19
39 -14 19
40 -14 19
41 -14 19
42 39 45
43 39 45
44 39 45
45 39 45
46 39 45
47 39 45
48 39 45
49 -11 33
50 -11 33
51 -11 33
52 -13 -15
53 -13 -15
54 -13 -15
55 -13 -15
56 -13 -15
57 6 -29
58 6 -29
59 -42 9
60 -42 9
61 -42 9
62 -42 9
63 -42 9
64 -42 9
65 -42 9
66 -42 9
67 16 -33
68 16 -33
69 16 -33
70 16 -33
71 16 -33
72 16 -33
73 -23 -8
74 -23 -8
75 -23 -8
76 -23 -8
77 38 -40
78 38 -40
79 38 -40
80 38 -40
81 38 -40
82 -20 22
83 -20 22
84 -20 22
85 -20 22
86 -20 22
87 39 -7
88 39 -7
89 39 -7
90 -31 4
91 -31 4
92 -31 4
93 -31 4
94 47 -41
95 47 -41
96 -38 16
97 -38 16
98 -38 16
99 -38 16
100 -38 16
101 -38 16
102 16 39
103 16 39
104 16 39
105 16 39
106 16 39
107 16 39
108 16 39
109 16 39
110 36 -9
111 36 -9
112 36 -9
113 36 -9
114 36 -9
115 36 -9
116 1 -27
117 1 -27
118 1 -27
119 34 36
120 34 36
121 34 36
122 34 36
123 34 36
124 34 36
125 1 -41
126 1 -41
127 44 20
128 44 20
129 44 20
130 27 40
131 27 40
132 27 40
133 27 40
134 27 40
135 28 -5
136 28 -5
137 28 -5
138 28 -5
139 28 -5
140 -27 -16
141 -27 -16
142 -27 -16
143 -27 -16
144 -27 -16
145 -19 14
146 -19 14
147 43 23
148 43 23
149 43 23
150 43 23
151 43 23
152 1 30
153 1 30
154 1 30
155 18 21
156 18 21
157 18 21
158 18 21
159 14 -9
160 14 -9
161 14 -9
162 14 -9
163 14 -9
164 -32 -10
165 -32 -10
166 -32 -10
167 -32 -10
168 -32 -10
169 -31 -25
170 -31 -25
171 -31 -25
172 -31 -25
173 -31 -25
174 -31 -25
175 -31 -25
176 -31 -25
177 -35 -40
178 -35 -40
179 5 35
180 5 35
181 5 35
182 5 35
183 3 24
184 3 24
185 -20 15
186 -20 15
187 -20 15
188 38 41
189 38 41
190 38 41
191 38 41
192 2 -4
193 2 -4
194 2 -4
195 2 -4
196 2 -4
197 2 -4
198 33 -34
199 33 -34
200 33 -34
201 33 -34
202 33 -34
203 -6 -10
204 -6 -10
205 -6 -10
206 -6 -10
207 -6 -10
208 42 -29
209 42 -29
210 42 -29
211 42 -29
212 42 -29
213 42 -29
214 42 -29
215 10 -32
216 10 -32
217 10 -32
218 10 -32
219 10 -32
220 10 -32
221 10 -32
222 -18 2
223 -18 2
224 -18 2
225 -18 2
226 -18 2
227 2 -9
228 2 -9
229 2 -9
230 2 -9
231 2 -9
232 -38 21
233 -38 21
234 -38 21
235 -38 21
236 -38 21
237 6 -2
238 6 -2
239 6 -2
240 6 -2
241 5 38
242 5 38
243 46 43
244 46 43
245 46 43
246 46 43
247 46 43
248 -17 4
249 -17 4
250 -17 4
251 -2 -17
252 -2 -17
253 -2 -17
254 -2 -17
255 -2 -17
256 -2 -17
257 -27 43
258 -27 43
259 -27 43
260 -27 43
261 -27 43
262 35 49
263 35 49
264 35 49
265 35 49
266 -19 -50
267 -19 -50
268 -19 -50
269 30 -39
270 30 -39
271 30 -39
272 30 -39
273 30 -39
274 30 -39
275 23 48
276 23 48
277 23 48
278 40 -3
279 40 -3
280 40 -3
281 40 -3
282 40 -3
283 40 -3
284 -14 -25
285 -14 -25
286 -14 -25
287 -14 -25
288 41 18
289 41 18
290 41 18
291 41 18
292 41 18
293 41 -40
294 41 -40
295 41 -40
296 -32 37
297 -32 37
298 -32 37
299 -32 37
300 -32 37
301 -23 1
302 -23 1
303 -31 45
304 -31 45
305 -31 45
306 -31 45
307 -31 45
308 -31 45
309 -31 45
310 -16 -25
311 -16 -25
312 -16 -25
313 -10 -45
314 -10 -45
315 -24 47
316 -24 47
317 -16 30
318 -16 30
319 -16 30
320 5 19
321 5 19
322 5 19
323 5 19
324 5 19
325 5 19
326 -33 -9
327 -33 -9
328 -33 -9
329 -33 -9
330 32 -50
331 32 -50
332 32 -50
333 32 -50
334 37 -41
335 37 -41
336 37 -41
337 37 -41
338 37 -41
339 37 -41
340 37 -41
341 -22 4
342 -22 4
343 -22 4
344 42 -32
345 42 -32
346 42 -32
347 42 -32
348 42 -32
349 35 21
350 35 21
351 35 21
352 35 21
353 35 21
354 35 21
355 35 21
356 -40 23
357 -40 23
358 -40 23
359 -40 23
360 -40 23
361 -40 23
362 2 -8
363 2 -8
364 2 -8
365 45 -9
366 45 -9
367 45 -9
368 45 -9
369 45 -9
370 36 16
371 36 16
372 36 16
373 36 16
374 42 -49
375 42 -49
376 42 -49
377 42 -49
378 42 -49
379 -24 -10
380 -24 -10
381 -24 -10
382 -24 -10
383 -24 -10
384 -24 -10
385 -4 -46
386 -4 -46
387 -4 -46
388 28 -23
389 28 -23
390 28 -23
391 28 -23
392 8 16
393 8 16
394 8 16
395 8 16
396 8 16
397 -21 36
398 -21 36
399 -21 36
400 -21 36
401 -21 36
402 -21 36
403 -21 36
404 -1 34
405 -1 34
406 -1 34
407 -1 34
408 -1 34
409 -1 34
410 -1 34
411 -35 4
412 -35 4
413 -35 4
414 -35 4
415 -35 4
416 -42 28
417 -42 28
418 -42 28
419 -42 28
420 -42 28
421 -42 28
422 -13 46
423 -13 46
424 -13 46
425 14 9
426 14 9
427 14 9
428 42 9
429 42 9
430 15 22
431 15 22
432 15 22
433 15 22
434 15 22
435 15 22
436 15 22
437 -39 -12
438 -39 -12
439 -39 -12
440 30 50
441 -36 -31
442 -36 -31
443 -36 -31
444 -36 -31
445 -36 -31
446 -36 -31
447 -31 -31
448 -31 -31
449 44 17
450 -14 -46
451 -14 -46
452 -14 -46
453 -14 -46
454 -14 -46
455 -14 -46
456 -10 -42
457 -10 -42
458 -10 -42
459 -10 -42
460 -10 -42
461 -16 29
462 -16 29
463 -16 29
464 -16 29
465 -16 29
466 14 -17
467 14 -17
468 4 -33
469 4 -33
470 4 -33
471 4 -33
472 4 -33
473 4 -33
474 39 -29
475 39 -29
476 39 -29
477 40 43
478 40 43
479 40 43
480 40 43
481 40 43
482 40 43
483 -30 -40
484 -30 -40
485 -30 -40
486 -30 -40
487 -30 -40
488 -47 1
489 -47 1
490 -47 1
491 -47 1
492 33 9
493 33 9
494 33 9
495 33 9
496 33 9
497 25 -6
498 25 -6
499 25 -6
500 25 -6
501 25 -6
502 28 -50
503 28 -50
504 28 -50
505 28 -50
506 28 -50
507 28 -50
508 28 -50
509 -27 49
510 -27 49
511 -27 49
512 -27 49
513 15 5
514 15 5
515 15 5
516 15 5
517 15 5
518 15 5
519 15 5
520 -11 -3
521 -11 -3
522 -11 -3
523 -11 -3
524 -11 -3
525 -11 -3
526 -11 -3
527 -11 -3
528 41 -22
529 41 -22
530 11 -45
531 11 -45
532 11 -45
533 11 -45
534 11 -45
535 43 -36
536 43 -36
537 35 18
538 35 18
539 35 18
540 -4 -45
541 -4 -45
542 -4 -45
543 -5 45
544 -5 45
545 -5 45
546 -5 45
547 -5 45
548 -5 45
549 45 2
550 45 2
551 45 2
552 45 2
553 32 -9
554 32 -9
555 32 -9
556 32 -9
557 32 -9
558 32 -9
559 23 -45
560 23 -45
561 23 -45
562 23 -45
563 23 -45
564 23 -45
565 40 46
566 40 46
567 40 46
568 37 12
569 37 12
570 37 12
571 37 12
572 32 8
573 32 8
574 32 8
575 -33 -28
576 -33 -28
577 -21 -17
578 -21 -17
579 -21 -17
580 -21 -17
581 28 -33
582 28 -33
583 28 -33
584 28 -33
585 -8 -50
586 -8 -50
587 -8 -50
588 0 34
589 0 34
590 0 34
591 0 34
592 0 34
593 0 34
594 6 11
595 6 11
596 6 11
597 6 11
598 -21 12
599 -21 12
600 -21 12
601 -21 12
602 -47 -16
603 -47 -16
604 19 -37
605 19 -37
606 19 -37
607 19 -37
608 19 -37
609 13 -43
610 13 -43
611 13 -43
612 13 -43
613 13 -43
614 13 31
615 13 31
616 13 31
617 -50 24
618 -50 24
619 -50 24
620 -50 24
621 -50 24
622 -50 24
623 -32 15
624 -32 15
625 -32 15
626 -32 15
627 25 3
628 25 3
629 25 3
630 25 3
631 25 3
632 25 3
633 32 28
634 32 28
635 32 28
636 32 28
637 32 28
638 -38 -33
639 -38 -33
640 -38 -33
641 -38 -33
642 -38 -33
643 -38 -33
644 2 -8
645 2 -8
646 2 -8
647 2 -8
648 2 -8
649 -1 18
650 -1 18
651 -46 -6
652 -46 -6
653 -46 -6
654 -46 -6
655 -46 -6
656 -46 -6
657 -46 -6
658 -4 -26
659 -4 -26
660 -4 -26
661 43 48
662 43 48
663 43 48
664 43 48
665 -17 26
666 -17 26
667 -17 26
668 -17 26
669 -17 26
670 -17 26
671 -27 4
672 -27 4
673 -27 4
674 -27 4
675 -27 4
676 -27 4
677 10 -10
678 10 -10
679 11 -19
680 11 -19
681 11 -19
682 11 -19
683 -24 -46
684 -24 -46
685 -24 -46
686 -24 -46
687 -24 -46
688 -24 -46
689 4 -23
690 4 -23
691 4 -23
692 4 -23
693 4 -23
694 4 -23
695 4 -23
696 -23 7
697 -23 7
698 -36 34
699 -36 34
700 -36 34
701 -36 34
702 -36 34
703 -26 -5
704 -26 -5
705 -26 -5
706 -26 -5
707 -26 -5
708 -42 -25
709 -42 -25
710 -42 -25
711 -42 -25
712 30 -21
713 30 -21
714 30 -21
715 30 -21
716 30 -21
717 30 -21
718 30 -21
719 30 -21
720 8 -7
721 8 -7
722 8 -7
723 -39 16
724 -39 16
725 -39 16
726 -39 16
727 -39 16
728 -39 16
729 -25 27
730 -25 27
731 -25 27
732 -25 27
733 0 -47
734 0 -47
735 0 -47
736 0 -47
737 23 42
738 23 42
739 23 42
740 -35 -28
741 -35 -28
742 -35 -28
743 -35 -28
744 -35 -28
745 -37 29
746 -37 29
747 -37 29
748 -37 29
749 -37 29
750 -37 29
751 17 12
752 17 12
753 17 12
754 17 12
755 17 12
756 -19 -39
757 -19 -39
758 -19 -39
759 -19 -39
760 -19 -39
761 -10 -37
762 -10 -37
763 -10 -37
764 -10 -37
765 30 -42
766 30 -42
767 30 -42
768 25 8
769 25 8
770 25 8
771 25 8
772 -9 -40
773 -9 -40
774 -9 -40
775 -9 -40
776 -9 -40
777 -15 14
778 -15 14
779 28 38
780 28 38
781 32 -43
782 32 -43
783 -26 -49
784 -26 -49
785 -26 -49
786 -26 -49
787 -26 -49
788 -26 -49
789 40 22
790 40 22
791 40 22
792 40 22
793 40 22
794 40 22
795 -44 8
796 -44 8
797 -44 8
798 -32 -15
799 -32 -15
800 -32 -15
801 -32 -15
802 -32 -15
803 -13 47
804 -13 47
805 -13 47
806 -13 47
807 -13 47
808 -13 47
809 -32 14
810 -32 14
811 -26 34
812 -26 34
813 -26 34
814 -26 34
815 -26 34
816 -26 34
817 -26 34
818 6 31
819 6 31
820 6 31
821 6 31
822 6 31
823 28 -50
824 28 -50
825 28 -50
826 28 -50
827 -39 16
828 -39 16
829 -39 16
830 -39 16
831 -39 16
832 -33 -26
833 -33 -26
834 -33 -26
835 -33 -26
836 -33 -26
837 12 -9
838 12 -9
839 12 -9
840 29 41
841 29 41
842 29 41
843 29 41
844 29 41
845 17 -48
846 17 -48
847 17 -48
848 17 -48
849 17 -48
850 17 -48
851 -16 -3
852 -16 -3
853 -16 -3
854 -16 -3
855 24 -45
856 24 -45
857 24 -45
858 38 29
859 38 29
860 38 29
861 38 29
862 38 29
863 38 29
864 -41 17
865 -41 17
866 -44 13
867 -44 13
868 -44 13
869 -44 13
870 -19 -21
871 -19 -21
872 -19 -21
873 -19 -21
874 -19 -21
875 -19 -21
876 -19 -21
877 -9 5
878 -43 -13
879 -43 -13
880 -43 -13
881 39 15
882 39 15
883 39 15
884 39 15
885 -4 2
886 -4 2
887 -4 2
888 -4 2
889 -4 2
890 32 -35
891 32 -35
892 32 -35
893 32 -35
894 32 -35
DEMAND_SECTION
1 0
2 40
3 10
4 2
5 2
6 2
7 40
8 20
9 2
10 2
11 2
12 2
13 1
14 40
15 40
16 10
17 2
18 2
19 2
20 40
21 20
22 2
23 2
24 2
25 2
26 1
27 40
28 20
29 10
30 1
31 40
32 2
33 2
34 1
35 40
36 20
37 10
38 2
39 2
40 2
41 1
42 40
43 40
44 2
45 2
46 2
47 2
48 1
49 20
50 10
51 1
52 40
53 40
54 10
55 2
56 1
57 40
58 1
59 40
60 40
61 10
62 2
63 2
64 2
65 2
66 1
67 40
68 40
69 10
70 2
71 2
72 2
73 40
74 20
75 2
76 2
77 40
78 40
79 10
80 2
81 2
82 20
83 10
84 2
85 2
86 1
87 40
88 40
89 10
90 40
91 20
92 10
93 2
94 40
95 40
96 20
97 2
98 2
99 2
100 2
101 1
102 40
103 40
104 10
105 2
106 2
107 2
108 2
109 1
110 40
111 20
112 10
113 2
114 2
115 2
116 20
117 10
118 2
119 20
120 2
121 2
122 2
123 2
124 1
125 40
126 10
127 40
128 40
129 20
130 40
131 2
132 2
133 2
134 1
135 40
136 2
137 2
138 2
139 2
140 20
141 2
142 2
143 2
144 2
145 40
146 2
147 40
148 20
149 2
150 2
151 2
152 40
153 20
154 2
155 40
156 20
157 10
158 2
159 40
160 40
161 10
162 2
163 2
164 40
165 40
166 10
167 2
168 2
169 40
170 40
171 10
172 2
173 2
174 2
175 2
176 1
177 40
178 10
179 40
180 40
181 10
182 1
183 40
184 2
185 40
186 2
187 1
188 40
189 20
190 2
191 1
192 40
193 40
194 2
195 2
196 2
197 1
198 40
199 40
200 2
201 2
202 2
203 40
204 10
205 2
206 2
207 1
208 40
209 10
210 2
211 2
212 2
213 2
214 1
215 20
216 10
217 2
218 2
219 2
220 2
221 1
222 40
223 40
224 10
225 2
226 2
227 40
228 10
229 2
230 2
231 2
232 40
233 40
234 2
235 2
236 1
237 20
238 2
239 2
240 2
241 40
242 20
243 40
244 2
245 2
246 2
247 1
248 40
249 10
250 1
251 40
252 40
253 10
254 2
255 2
256 1
257 20
258 2
259 2
260 2
261 2
262 40
263 40
264 2
265 2
266 40
267 10
268 2
269 40
270 10
271 2
272 2
273 2
274 2
275 40
276 20
277 2
278 40
279 40
280 2
281 2
282 2
283 2
284 40
285 40
286 2
287 2
288 40
289 20
290 2
291 2
292 1
293 40
294 2
295 2
296 20
297 2
298 2
299 2
300 2
301 40
302 40
303 40
304 20
305 2
306 2
307 2
308 2
309 1
310 40
311 40
312 10
313 40
314 1
315 40
316 1
317 40
318 20
319 10
320 40
321 40
322 2
323 2
324 2
325 2
326 20
327 2
328 2
329 2
330 40
331 40
332 10
333 2
334 40
335 10
336 2
337 2
338 2
339 2
340 1
341 40
342 40
343 20
344 40
345 40
346 10
347 2
348 1
349 40
350 20
351 2
352 2
353 2
354 2
355 1
356 40
357 40
358 10
359 2
360 2
361 2
362 40
363 40
364 1
365 40
366 40
367 10
368 2
369 1
370 40
371 20
372 2
373 1
374 40
375 40
376 10
377 2
378 2
379 40
380 10
381 2
382 2
383 2
384 2
385 40
386 10
387 1
388 40
389 2
390 2
391 2
392 40
393 20
394 2
395 2
396 1
397 40
398 40
399 2
400 2
401 2
402 2
403 1
404 40
405 20
406 10
407 2
408 2
409 2
410 2
411 40
412 10
413 2
414 2
415 2
416 20
417 2
418 2
419 2
420 2
421 1
422 20
423 10
424 1
425 40
426 20
427 1
428 40
429 10
430 40
431 40
432 2
433 2
434 2
435 2
436 1
437 40
438 10
439 2
440 40
441 20
442 10
443 2
444 2
445 2
446 1
447 20
448 10
449 40
450 40
451 20
452 10
453 2
454 2
455 1
456 40
457 20
458 2
459 2
460 1
461 20
462 2
463 2
464 2
465 2
466 40
467 1
468 40
469 20
470 10
471 2
472 2
473 1
474 40
475 40
476 20
477 40
478 20
479 2
480 2
481 2
482 1
483 40
484 40
485 10
486 2
487 1
488 20
489 2
490 2
491 1
492 20
493 10
494 2
495 2
496 1
497 40
498 10
499 2
500 2
501 2
502 40
503 40
504 10
505 2
506 2
507 2
508 1
509 40
510 20
511 10
512 1
513 40
514 40
515 2
516 2
517 2
518 2
519 1
520 40
521 40
522 10
523 2
524 2
525 2
526 2
527 1
528 40
529 20
530 40
531 2
532 2
533 2
534 2
535 40
536 20
537 40
538 2
539 1
540 40
541 40
542 1
543 40
544 20
545 2
546 2
547 2
548 2
549 40
550 20
551 2
552 2
553 40
554 40
555 10
556 2
557 2
558 2
559 40
560 10
561 2
562 2
563 2
564 2
565 40
566 20
567 1
568 40
569 10
570 2
571 1
572 40
573 20
574 10
575 40
576 20
577 20
578 2
579 2
580 1
581 40
582 20
583 2
584 1
585 20
586 10
587 1
588 40
589 40
590 2
591 2
592 2
593 1
594 40
595 20
596 10
597 2
598 40
599 2
600 2
601 2
602 40
603 20
604 40
605 20
606 10
607 2
608 1
609 40
610 10
611 2
612 2
613 2
614 40
615 20
616 1
617 20
618 10
619 2
620 2
621 2
622 1
623 40
624 40
625 10
626 2
627 40
628 40
629 2
630 2
631 2
632 2
633 40
634 40
635 2
636 2
637 2
638 40
639 20
640 10
641 2
642 2
643 2
644 20
645 10
646 2
647 2
648 1
649 40
650 40
651 40
652 40
653 10
654 2
655 2
656 2
657 1
658 40
659 40
660 10
661 20
662 10
663 2
664 2
665 40
666 20
667 10
668 2
669 2
670 2
671 40
672 20
673 2
674 2
675 2
676 1
677 40
678 2
679 40
680 20
681 10
682 2
683 40
684 20
685 10
686 2
687 2
688 2
689 40
690 20
691 2
692 2
693 2
694 2
695 1
696 20
697 10
698 40
699 20
700 10
701 2
702 1
703 40
704 2
705 2
706 2
707 1
708 40
709 20
710 2
711 1
712 40
713 40
714 10
715 2
716 2
717 2
718 2
719 1
720 40
721 2
722 1
723 40
724 20
725 2
726 2
727 2
728 1
729 20
730 10
731 2
732 1
733 40
734 10
735 2
736 1
737 40
738 2
739 1
740 40
741 10
742 2
743 2
744 1
745 40
746 10
747 2
748 2
749 2
750 1
751 40
752 20
753 2
754 2
755 2
756 40
757 40
758 10
759 2
760 1
761 40
762 40
763 2
764 2
765 40
766 2
767 1
768 40
769 40
770 2
771 2
772 40
773 40
774 10
775 2
776 2
777 40
778 1
779 40
780 1
781 40
782 40
783 40
784 20
785 10
786 2
787 2
788 2
789 20
790 10
791 2
792 2
793 2
794 2
795 40
796 40
797 2
798 40
799 40
800 10
801 2
802 2
803 40
804 40
805 2
806 2
807 2
808 1
809 40
810 1
811 40
812 20
813 10
814 2
815 2
816 2
817 2
818 40
819 20
820 2
821 2
822 1
823 40
824 2
825 2
826 1
827 40
828 20
829 2
830 2
831 1
832 40
833 40
834 2
835 2
836 2
837 40
838 2
839 1
840 40
841 40
842 2
843 2
844 1
845 40
846 10
847 2
848 2
849 2
850 2
851 40
852 40
853 10
854 2
855 40
856 2
857 2
858 40
859 40
860 2
861 2
862 2
863 1
864 20
865 10
866 40
867 10
868 2
869 1
870 40
871 40
872 10
873 2
874 2
875 2
876 2
877 40
878 40
879 20
880 2
881 40
882 20
883 2
884 1
885 40
886 2
887 2
888 2
889 2
890 20
891 2
892 2
893 2
894 1
DEPOT_SECTION
1
-1
EOF