SDVRP instances/custom_instances/p10_26_split0.sol
893 -2 5 3 1 4 713 715 711 716 712 714 389 387 390 388 -18 17 16 15 13 14 649 648 -24 25 23 21 20 19 22 836 838 837 719 720 721 -39 38 37 35 668 669 667 665 664 666 460 462 463 461 464 318 317 316 -40 34 36 85 83 84 81 82 728 731 729 730 811 814 812 813 816 810 815 -44 46 564 566 565 261 263 262 264 439 103 -49 50 48 404 408 406 403 407 405 409 591 590 592 587 589 588 -51 54 52 53 55 870 871 869 874 872 873 875 -57 56 220 217 216 854 270 273 889 893 890 201 197 198 -58 868 865 867 866 618 619 616 621 620 617 415 420 418 419 416 417 355 -64 61 62 65 63 60 59 795 794 796 414 411 410 413 412 -70 71 66 68 67 69 603 605 604 214 215 219 218 -73 74 75 72 164 166 167 163 702 703 704 706 705 -87 86 88 109 110 112 111 113 114 554 557 556 555 497 498 -96 98 100 97 99 95 863 864 723 722 726 725 826 828 724 829 830 827 727 -104 106 105 108 107 101 102 274 275 276 738 736 737 596 -122 118 841 840 843 839 842 133 130 129 132 131 779 778 -123 119 120 121 190 189 188 41 47 43 45 42 662 663 660 661 246 245 243 242 244 -134 135 136 138 137 552 553 496 500 499 236 239 238 237 -142 139 143 140 141 800 801 798 799 797 380 382 378 379 381 383 853 852 -145 144 184 186 185 26 28 29 27 777 776 -152 153 151 818 820 817 614 613 615 -155 156 154 157 434 433 432 431 430 429 435 394 395 392 -162 158 160 161 159 627 628 629 630 626 631 -165 327 326 325 328 436 438 650 653 651 656 652 655 654 489 487 488 490 -169 173 168 172 835 831 833 574 575 -171 170 175 174 834 832 440 443 445 441 444 442 641 640 639 638 642 637 447 446 -182 183 178 181 180 179 240 241 819 821 -187 476 479 478 477 481 480 857 860 859 861 862 858 -191 192 363 361 643 645 644 646 362 647 -196 194 195 193 228 226 253 254 255 252 250 251 202 204 205 206 203 -200 199 376 377 373 375 374 331 332 329 330 507 505 823 607 606 -213 209 208 210 534 535 93 94 294 292 293 -224 223 225 301 300 342 340 341 -230 227 229 688 690 693 694 691 689 692 115 116 117 658 657 -233 231 235 232 234 357 358 360 359 356 747 749 746 748 745 744 -249 248 247 696 91 92 90 89 671 675 673 672 674 670 -277 281 278 282 549 550 551 548 428 427 -279 280 368 367 365 364 366 527 528 474 -283 284 285 286 311 310 309 576 578 577 579 -315 314 508 510 511 509 400 396 398 397 401 402 -323 322 321 320 324 319 391 393 593 595 594 -351 352 789 792 7 8 12 10 9 11 6 128 126 448 570 569 568 -370 369 882 880 881 883 567 494 493 492 491 495 -371 372 288 289 291 290 287 127 147 146 150 149 148 793 788 791 790 -385 386 384 735 732 733 734 124 125 470 467 472 -399 259 260 256 258 257 308 303 302 305 304 306 307 298 296 299 295 297 699 701 698 697 700 -422 421 423 806 805 807 804 803 802 543 546 545 547 542 544 -426 424 425 753 750 752 754 751 517 515 513 514 -437 878 879 877 601 602 709 710 707 708 -457 456 451 452 453 449 454 450 265 267 266 756 757 -459 455 458 313 312 585 584 586 539 540 541 -469 468 471 532 530 531 533 529 845 849 847 844 846 848 612 610 609 611 608 -473 475 347 344 346 345 343 207 212 211 718 717 -484 485 486 483 482 177 176 740 741 739 742 743 -512 518 516 770 768 769 767 572 573 571 -523 524 521 522 526 525 519 520 884 888 887 885 886 -537 538 536 350 354 353 348 349 633 632 635 634 636 -560 561 559 562 563 558 503 502 501 506 825 504 824 822 856 855 -580 339 333 338 336 335 334 337 80 77 78 76 79 891 892 -582 581 583 269 271 272 268 781 780 765 766 764 -600 597 599 598 622 623 625 624 808 809 695 -659 772 775 773 774 771 763 760 761 762 -676 677 465 466 32 30 33 31 678 679 680 681 -755 758 759 686 684 687 682 685 683 787 784 786 785 782 783 -851 850 222 221 876 0 





OBJ=
5680.256
BEST_KNOWN=
0.000